n_res = 4;
rcap = [10, 14, 80, 104];
rtype = [1, 1, 2, 2];
n_tasks = 16;
modes = [ {1, 2, 3}, {4, 5, 6}, {7, 8, 9}, {10, 11, 12}, {13, 14, 15}, {16, 17, 18}, {19, 20, 21}, {22, 23, 24}, {25, 26, 27}, {28, 29, 30}, {31, 32, 33}, {34, 35, 36}, {37, 38, 39}, {40, 41, 42}, {43, 44, 45}, {46, 47, 48} ];
succ = [ {4, 5, 6}, {5, 6, 9}, {7, 8, 9}, {7, 8, 11}, {11, 13, 16}, {11, 12, 16}, {10, 12, 15}, {10, 12, 13}, {10, 13}, {14, 16}, {14, 15}, {14}, {15}, {}, {}, {} ];
n_opt = 48;
dur = [4, 5, 7, 2, 4, 6, 1, 1, 4, 2, 5, 6, 2, 5, 9, 4, 7, 9, 2, 6, 8, 1, 2, 8, 1, 3, 10, 2, 7, 7, 3, 3, 3, 5, 10, 10, 4, 4, 5, 2, 3, 6, 2, 4, 5, 1, 3, 9];
rreq = [|  9,  7,  6,  2,  2,  1,  4,  5,  2,  7,  6,  2,  5,  5,  5,  5,  5,  4,  5,  3,  2,  6,  6,  5,  6,  5,  4,  4,  3,  3,  3,  4,  3,  3,  2,  2,  4,  4,  3,  5,  4,  4,  5,  5,  4,  9,  7,  7
        |  6,  6,  6,  6,  6,  6,  6,  6,  5,  6,  6,  1,  7,  6,  4, 10,  9,  8,  5,  4,  3,  9,  8,  7,  7,  6,  5,  2,  2,  2,  7,  3,  2,  9,  9,  9,  7,  8,  5,  5,  4,  1,  8,  4,  3,  5,  5,  5
        |  7,  7,  6,  9,  8,  8,  5,  7,  4,  7,  7,  7, 10,  8,  7,  9,  7,  4,  4,  3,  3,  1,  1,  1,  3,  3,  2,  8,  3,  2,  1,  3,  4,  7,  7,  5,  3,  4,  3,  3,  3,  2, 10,  7,  3,  5,  4,  3
        |  3,  3,  2,  9,  9,  9,  5,  4,  4,  3,  2,  2, 10,  8,  8,  7,  6,  6,  8,  8,  8,  6,  5,  4, 10,  6,  4,  8,  6,  7,  8,  8,  7,  6,  4,  5,  9,  8,  8,  8,  8,  8,  8,  8,  7,  6,  6,  6 |];
